45
1 0 5
2 0 5
2 1 1
3 0 1
3 1 1
3 2 4
4 0 3
4 1 5
4 2 1
4 3 3
5 0 5
5 1 5
5 2 5
5 3 2
5 4 5
6 0 5
6 1 3
6 2 4
6 3 5
6 4 5
6 5 2
7 0 4
7 1 2
7 2 5
7 3 1
7 4 4
7 5 3
7 6 1
8 0 5
8 1 4
8 2 3
8 3 2
8 4 5
8 5 3
8 6 2
8 7 5
9 0 1
9 1 5
9 2 4
9 3 5
9 4 2
9 5 4
9 6 2
9 7 3
9 8 5
10 0 1
10 1 4
10 2 2
10 3 3
10 4 1
10 5 2
10 6 4
10 7 1
10 8 4
10 9 3
11 0 5
11 1 2
11 2 5
11 3 5
11 4 1
11 5 2
11 6 4
11 7 2
11 8 5
11 9 3
11 10 5
12 0 2
12 1 1
12 2 3
12 3 5
12 4 2
12 5 2
12 6 4
12 7 4
12 8 1
12 9 2
12 10 3
12 11 2
13 0 4
13 1 1
13 2 5
13 3 5
13 4 2
13 5 1
13 6 1
13 7 2
13 8 5
13 9 2
13 10 4
13 11 4
13 12 5
14 0 2
14 1 4
14 2 2
14 3 5
14 4 5
14 5 1
14 6 4
14 7 3
14 8 2
14 9 3
14 10 3
14 11 1
14 12 1
14 13 1
15 0 2
15 1 1
15 2 5
15 3 3
15 4 2
15 5 2
15 6 2
15 7 5
15 8 3
15 9 1
15 10 2
15 11 3
15 12 3
15 13 4
15 14 2
16 0 4
16 1 4
16 2 2
16 3 3
16 4 2
16 5 2
16 6 3
16 7 3
16 8 5
16 9 4
16 10 5
16 11 1
16 12 3
16 13 2
16 14 5
16 15 4
17 0 1
17 1 1
17 2 3
17 3 4
17 4 5
17 5 1
17 6 3
17 7 2
17 8 4
17 9 5
17 10 2
17 11 5
17 12 1
17 13 1
17 14 2
17 15 5
17 16 3
18 0 4
18 1 4
18 2 5
18 3 1
18 4 3
18 5 2
18 6 1
18 7 1
18 8 2
18 9 4
18 10 1
18 11 4
18 12 5
18 13 2
18 14 1
18 15 3
18 16 5
18 17 2
19 0 1
19 1 2
19 2 3
19 3 1
19 4 3
19 5 3
19 6 1
19 7 4
19 8 5
19 9 3
19 10 4
19 11 3
19 12 3
19 13 5
19 14 4
19 15 4
19 16 4
19 17 2
19 18 2
20 0 3
20 1 2
20 2 1
20 3 5
20 4 3
20 5 1
20 6 5
20 7 3
20 8 3
20 9 1
20 10 2
20 11 5
20 12 1
20 13 4
20 14 3
20 15 4
20 16 2
20 17 2
20 18 1
20 19 1
21 0 4
21 1 5
21 2 5
21 3 4
21 4 1
21 5 2
21 6 5
21 7 1
21 8 2
21 9 4
21 10 3
21 11 5
21 12 1
21 13 3
21 14 5
21 15 4
21 16 4
21 17 2
21 18 4
21 19 4
21 20 2
22 0 4
22 1 2
22 2 2
22 3 2
22 4 2
22 5 3
22 6 4
22 7 4
22 8 4
22 9 5
22 10 2
22 11 2
22 12 2
22 13 4
22 14 4
22 15 3
22 16 1
22 17 2
22 18 3
22 19 4
22 20 4
22 21 1
23 0 1
23 1 3
23 2 3
23 3 3
23 4 2
23 5 2
23 6 1
23 7 2
23 8 2
23 9 3
23 10 2
23 11 1
23 12 3
23 13 2
23 14 3
23 15 1
23 16 1
23 17 4
23 18 4
23 19 2
23 20 2
23 21 4
23 22 1
24 0 3
24 1 2
24 2 4
24 3 2
24 4 4
24 5 4
24 6 4
24 7 1
24 8 2
24 9 3
24 10 1
24 11 1
24 12 1
24 13 3
24 14 3
24 15 1
24 16 2
24 17 4
24 18 3
24 19 4
24 20 5
24 21 5
24 22 5
24 23 5
25 0 2
25 1 5
25 2 3
25 3 1
25 4 2
25 5 2
25 6 3
25 7 4
25 8 2
25 9 5
25 10 2
25 11 5
25 12 1
25 13 2
25 14 3
25 15 2
25 16 3
25 17 1
25 18 3
25 19 5
25 20 2
25 21 2
25 22 4
25 23 2
25 24 1
26 0 4
26 1 2
26 2 4
26 3 2
26 4 5
26 5 4
26 6 1
26 7 2
26 8 5
26 9 5
26 10 5
26 11 4
26 12 4
26 13 1
26 14 4
26 15 5
26 16 3
26 17 3
26 18 1
26 19 1
26 20 4
26 21 4
26 22 1
26 23 3
26 24 5
26 25 5
27 0 2
27 1 5
27 2 1
27 3 2
27 4 3
27 5 2
27 6 1
27 7 5
27 8 4
27 9 1
27 10 1
27 11 4
27 12 5
27 13 5
27 14 1
27 15 2
27 16 4
27 17 1
27 18 5
27 19 4
27 20 5
27 21 5
27 22 5
27 23 1
27 24 2
27 25 3
27 26 5
28 0 1
28 1 2
28 2 5
28 3 2
28 4 4
28 5 4
28 6 5
28 7 1
28 8 3
28 9 2
28 10 4
28 11 3
28 12 3
28 13 4
28 14 1
28 15 2
28 16 3
28 17 2
28 18 5
28 19 3
28 20 1
28 21 3
28 22 4
28 23 4
28 24 2
28 25 3
28 26 4
28 27 2
29 0 4
29 1 1
29 2 1
29 3 3
29 4 2
29 5 3
29 6 3
29 7 2
29 8 2
29 9 3
29 10 3
29 11 2
29 12 2
29 13 4
29 14 4
29 15 3
29 16 3
29 17 1
29 18 1
29 19 5
29 20 5
29 21 2
29 22 4
29 23 2
29 24 1
29 25 1
29 26 1
29 27 4
29 28 1
30 0 1
30 1 2
30 2 3
30 3 3
30 4 2
30 5 2
30 6 5
30 7 5
30 8 5
30 9 3
30 10 3
30 11 3
30 12 2
30 13 1
30 14 1
30 15 4
30 16 4
30 17 3
30 18 2
30 19 3
30 20 4
30 21 3
30 22 2
30 23 1
30 24 5
30 25 3
30 26 3
30 27 5
30 28 3
30 29 2
31 0 5
31 1 5
31 2 1
31 3 1
31 4 5
31 5 2
31 6 5
31 7 4
31 8 4
31 9 5
31 10 2
31 11 4
31 12 4
31 13 3
31 14 2
31 15 1
31 16 4
31 17 3
31 18 1
31 19 1
31 20 5
31 21 5
31 22 3
31 23 1
31 24 4
31 25 5
31 26 5
31 27 1
31 28 3
31 29 3
31 30 4
32 0 3
32 1 1
32 2 3
32 3 5
32 4 3
32 5 3
32 6 5
32 7 1
32 8 2
32 9 5
32 10 1
32 11 3
32 12 3
32 13 1
32 14 3
32 15 5
32 16 3
32 17 3
32 18 3
32 19 4
32 20 4
32 21 3
32 22 5
32 23 3
32 24 2
32 25 2
32 26 2
32 27 2
32 28 5
32 29 5
32 30 5
32 31 4
33 0 3
33 1 3
33 2 3
33 3 1
33 4 5
33 5 3
33 6 1
33 7 2
33 8 5
33 9 1
33 10 5
33 11 3
33 12 1
33 13 5
33 14 3
33 15 4
33 16 1
33 17 2
33 18 5
33 19 3
33 20 5
33 21 4
33 22 3
33 23 4
33 24 3
33 25 5
33 26 1
33 27 5
33 28 3
33 29 3
33 30 2
33 31 5
33 32 5
34 0 5
34 1 1
34 2 3
34 3 2
34 4 3
34 5 5
34 6 1
34 7 5
34 8 3
34 9 3
34 10 4
34 11 3
34 12 4
34 13 1
34 14 4
34 15 4
34 16 5
34 17 2
34 18 1
34 19 2
34 20 4
34 21 3
34 22 2
34 23 1
34 24 4
34 25 2
34 26 2
34 27 4
34 28 5
34 29 5
34 30 2
34 31 2
34 32 4
34 33 4
35 0 4
35 1 4
35 2 4
35 3 4
35 4 1
35 5 5
35 6 2
35 7 3
35 8 2
35 9 3
35 10 2
35 11 1
35 12 1
35 13 5
35 14 5
35 15 4
35 16 3
35 17 4
35 18 2
35 19 1
35 20 5
35 21 2
35 22 5
35 23 1
35 24 3
35 25 2
35 26 3
35 27 3
35 28 1
35 29 1
35 30 5
35 31 2
35 32 2
35 33 3
35 34 2
36 0 2
36 1 1
36 2 4
36 3 3
36 4 4
36 5 2
36 6 3
36 7 4
36 8 3
36 9 3
36 10 5
36 11 4
36 12 5
36 13 2
36 14 5
36 15 5
36 16 1
36 17 2
36 18 1
36 19 1
36 20 5
36 21 4
36 22 1
36 23 2
36 24 1
36 25 3
36 26 1
36 27 4
36 28 5
36 29 3
36 30 3
36 31 5
36 32 3
36 33 1
36 34 1
36 35 2
37 0 4
37 1 5
37 2 3
37 3 1
37 4 3
37 5 4
37 6 5
37 7 2
37 8 1
37 9 3
37 10 5
37 11 5
37 12 1
37 13 1
37 14 3
37 15 4
37 16 1
37 17 2
37 18 1
37 19 2
37 20 4
37 21 4
37 22 3
37 23 2
37 24 5
37 25 4
37 26 5
37 27 3
37 28 3
37 29 1
37 30 2
37 31 1
37 32 3
37 33 2
37 34 3
37 35 2
37 36 1
38 0 3
38 1 4
38 2 3
38 3 3
38 4 1
38 5 5
38 6 3
38 7 2
38 8 3
38 9 1
38 10 4
38 11 2
38 12 5
38 13 1
38 14 3
38 15 4
38 16 5
38 17 5
38 18 4
38 19 1
38 20 5
38 21 4
38 22 4
38 23 5
38 24 4
38 25 1
38 26 1
38 27 2
38 28 3
38 29 4
38 30 3
38 31 2
38 32 1
38 33 1
38 34 3
38 35 2
38 36 3
38 37 5
39 0 1
39 1 5
39 2 1
39 3 1
39 4 5
39 5 1
39 6 4
39 7 4
39 8 5
39 9 1
39 10 1
39 11 3
39 12 2
39 13 1
39 14 5
39 15 4
39 16 4
39 17 1
39 18 3
39 19 2
39 20 4
39 21 5
39 22 4
39 23 5
39 24 5
39 25 5
39 26 2
39 27 3
39 28 5
39 29 1
39 30 2
39 31 3
39 32 3
39 33 3
39 34 1
39 35 2
39 36 2
39 37 3
39 38 3
40 0 1
40 1 2
40 2 2
40 3 4
40 4 3
40 5 3
40 6 3
40 7 2
40 8 2
40 9 4
40 10 1
40 11 3
40 12 1
40 13 3
40 14 5
40 15 5
40 16 2
40 17 1
40 18 3
40 19 3
40 20 5
40 21 3
40 22 1
40 23 2
40 24 5
40 25 4
40 26 3
40 27 2
40 28 3
40 29 1
40 30 4
40 31 4
40 32 2
40 33 3
40 34 4
40 35 4
40 36 1
40 37 2
40 38 4
40 39 5
41 0 1
41 1 1
41 2 5
41 3 5
41 4 3
41 5 4
41 6 2
41 7 3
41 8 5
41 9 4
41 10 1
41 11 4
41 12 2
41 13 4
41 14 2
41 15 4
41 16 3
41 17 3
41 18 2
41 19 3
41 20 4
41 21 1
41 22 3
41 23 4
41 24 4
41 25 5
41 26 3
41 27 1
41 28 4
41 29 3
41 30 1
41 31 5
41 32 5
41 33 1
41 34 4
41 35 2
41 36 5
41 37 5
41 38 4
41 39 1
41 40 3
42 0 3
42 1 4
42 2 4
42 3 3
42 4 2
42 5 5
42 6 3
42 7 2
42 8 4
42 9 4
42 10 2
42 11 4
42 12 1
42 13 3
42 14 1
42 15 4
42 16 4
42 17 1
42 18 4
42 19 4
42 20 5
42 21 5
42 22 2
42 23 3
42 24 3
42 25 5
42 26 1
42 27 5
42 28 2
42 29 2
42 30 5
42 31 5
42 32 4
42 33 5
42 34 2
42 35 3
42 36 3
42 37 1
42 38 3
42 39 5
42 40 3
42 41 5
43 0 2
43 1 3
43 2 1
43 3 3
43 4 3
43 5 3
43 6 3
43 7 2
43 8 4
43 9 1
43 10 5
43 11 2
43 12 2
43 13 2
43 14 4
43 15 3
43 16 2
43 17 4
43 18 4
43 19 1
43 20 5
43 21 4
43 22 5
43 23 5
43 24 2
43 25 4
43 26 2
43 27 2
43 28 1
43 29 4
43 30 4
43 31 4
43 32 4
43 33 3
43 34 4
43 35 1
43 36 2
43 37 3
43 38 3
43 39 5
43 40 4
43 41 5
43 42 4
44 0 3
44 1 1
44 2 4
44 3 3
44 4 1
44 5 1
44 6 2
44 7 5
44 8 1
44 9 2
44 10 5
44 11 4
44 12 2
44 13 4
44 14 3
44 15 1
44 16 2
44 17 3
44 18 1
44 19 1
44 20 3
44 21 3
44 22 4
44 23 2
44 24 1
44 25 1
44 26 5
44 27 2
44 28 3
44 29 3
44 30 2
44 31 2
44 32 5
44 33 3
44 34 1
44 35 4
44 36 3
44 37 4
44 38 4
44 39 5
44 40 1
44 41 1
44 42 5
44 43 2
